40
    85    65    41    46    85    31    59    91    41    26    43    78    43     1    85    72    10    59    55    39    88    59     1    52    51     8    50    84     3    71     5    12    75    64    50    16    26    55    46    79
    10     4     9     5     6     3     1     8     3     5     4     7     5     7     1     1     3    10     7     1     6     1     5     9     3     5     5     8    10     1     7     1     2     5    10     4     2     7     8     1
   655   170  1030   673   453  1100  1370  1455   621   209  1163   288   292  1547   506  1074   972    78   128  1240   143  1531    81   269  1265   886   760  1212  1146   673    29   500  1497   377   482   374   981   691   333   256
